Selected objective sense:  MINIMIZE
Selected objective  name:  OBJ
Selected RHS        name:  RHS1
CPXPARAM_Preprocessing_Presolve                  0
CPXPARAM_LPMethod                                4
CPXPARAM_Threads                                 1
CPXPARAM_SolutionType                            2
CPXPARAM_TimeLimit                               3600
Tried aggregator 0 times.
Reduced presolve eliminated 25 rows and 1554 columns.
Reduced LP has 1281 rows, 4428 columns, and 436289 nonzeros.
Presolve time = 0.12 sec. (70.09 ticks)
Parallel mode: none, using 1 thread for barrier
Number of nonzeros in lower triangle of A*A' = 114768
Using Approximate Minimum Degree ordering
Total time for automatic ordering = 0.05 sec. (106.99 ticks)
Summary statistics for Cholesky factor:
  Rows in Factor            = 1281
  Integer space required    = 98047
  Total non-zeros in factor = 121272
  Total FP ops to factor    = 14094718
 Itn      Primal Obj        Dual Obj  Prim Inf Upper Inf  Dual Inf Inf Ratio
   0  -3.6438379e+10  -6.5719507e+05  4.96e+08  6.04e+04  1.27e+08  1.00e+00
   1  -6.7272870e+09   1.2776172e+08  9.93e+07  1.21e+04  4.73e+07  2.71e+00
   2  -3.3971627e+09   4.9315103e+07  5.29e+07  6.44e+03  3.15e+07  3.94e+00
   3  -4.9740696e+08  -1.6588766e+07  8.60e+06  1.05e+03  9.91e+06  1.28e+01
   4  -2.9348880e+07  -2.9999545e+07  6.63e+05  8.08e+01  2.59e+06  5.12e+01
   5  -5.2785174e+06  -2.9836110e+07  7.15e+04  8.71e+00  8.22e+05  1.78e+02
   6  -8.9287310e+06  -1.9934589e+07  2.04e+04  2.48e+00  1.98e+05  8.16e+02
   7  -8.8652070e+06  -2.0061720e+07  2.03e+04  2.47e+00  1.53e+05  1.20e+03
   8  -1.0182129e+07  -2.1122544e+07  1.58e+04  1.92e+00  7.99e+04  3.00e+03
   9  -1.0645025e+07  -2.0962394e+07  1.46e+04  1.77e+00  6.82e+04  3.74e+03
  10  -1.2016030e+07  -2.3777270e+07  1.34e+04  1.63e+00  4.62e+04  7.68e+03
  11  -1.3284766e+07  -2.0516210e+07  9.36e+03  1.14e+00  2.20e+04  2.34e+04
  12  -1.4018519e+07  -1.8695602e+07  6.66e+03  8.11e-01  1.25e+04  5.32e+04
  13  -1.5231199e+07  -1.6300798e+07  1.47e+03  1.79e-01  2.74e+03  3.36e+05
  14  -1.5292698e+07  -1.5940174e+07  1.18e+03  1.43e-01  1.43e+03  7.24e+05
  15  -1.5402571e+07  -1.5761422e+07  8.10e+02  9.87e-02  5.15e+02  4.80e+06
  16  -1.5465328e+07  -1.5677227e+07  5.98e+02  7.29e-02  1.46e+02  3.01e+07
  17  -1.5496836e+07  -1.5685344e+07  7.20e+02  8.77e-02  1.49e+02  2.08e+07
  18  -1.5506399e+07  -1.6029292e+07  7.21e+02  8.78e-02  1.53e+02  2.59e+07
  19  -1.5567019e+07  -1.5875385e+07  5.65e+02  6.89e-02  5.59e+01  1.61e+08
  20  -1.5575567e+07  -1.5934829e+07  5.77e+02  7.03e-02  6.06e+01  1.51e+08
  21  -1.5609679e+07  -1.5842124e+07  4.95e+02  6.03e-02  1.45e+01  1.57e+09
  22  -1.5690812e+07  -1.5836547e+07  3.16e+02  3.85e-02  3.75e+00  2.45e+09
  23  -1.5741581e+07  -1.5802903e+07  1.56e+02  1.90e-02  1.05e+00  7.07e+09
  24  -1.5759835e+07  -1.5796265e+07  1.03e+02  1.25e-02  2.08e-01  1.67e+10
  25  -1.5770108e+07  -1.5796376e+07  7.39e+01  9.01e-03  9.40e-02  1.57e+10
  26  -1.5781495e+07  -1.5793535e+07  3.24e+01  3.95e-03  6.14e-02  2.91e+10
  27  -1.5788983e+07  -1.5791755e+07  7.69e+00  9.37e-04  3.71e-02  5.99e+10
  28  -1.5789707e+07  -1.5790917e+07  4.22e+00  5.14e-04  3.64e-02  2.02e+11
  29  -1.5790194e+07  -1.5790699e+07  1.98e+00  2.41e-04  1.61e-02  6.39e+11
  30  -1.5790498e+07  -1.5790624e+07  5.22e-01  6.36e-05  4.50e-03  3.12e+12
  31  -1.5790595e+07  -1.5790610e+07  6.29e-02  7.66e-06  7.30e-04  8.19e+12
  32  -1.5790604e+07  -1.5790606e+07  2.60e-03  3.17e-07  2.55e-04  2.38e+13
  33  -1.5790604e+07  -1.5790604e+07  9.14e-05  1.11e-08  4.12e-05  1.54e+14
Barrier time = 1.41 sec. (4496.53 ticks)

Total time on 1 threads = 1.41 sec. (4496.53 ticks)
Solve time: 1.409567071
Barrier iterations: 33
